c WARNING: for repeatability, setting FPU to use double precision
d VARIABLES            109614       
d CONSTRAINTS          492477       
c ============================[ Problem Statistics ]=============================
c |                                                                             |
c |  Number of variables:        109614                                         |
c |  Number of clauses:          492477                                         |
c |  Parse time:                   0.09 s                                       |
c |                                                                             |
c ============================[ Search Statistics ]==============================
c | Conflicts |          ORIGINAL         |          LEARNT          | Progress |
c |           |    Vars  Clauses Literals |    Limit  Clauses Lit/Cl |          |
c ===============================================================================
c |       100 |   94334   449373  1087666 |   164770      100     29 | 13.940 % |
c |       250 |   94334   449373  1087666 |   181247      250     33 | 13.940 % |
c |       475 |   94334   449373  1087666 |   199371      475     34 | 13.940 % |
c |       812 |   94334   449373  1087666 |   219309      812     34 | 13.940 % |
c |      1318 |   94334   449373  1087666 |   241239     1318     36 | 13.940 % |
c |      2077 |   94334   449373  1087666 |   265363     2077     41 | 13.940 % |
c |      3216 |   94334   449373  1087666 |   291900     3216     47 | 13.940 % |
c |      4924 |   94334   449373  1087666 |   321090     4924     50 | 13.940 % |
c |      7486 |   94334   449373  1087666 |   353199     7486     53 | 13.940 % |
c |     11330 |   94334   449373  1087666 |   388519    11330     56 | 13.940 % |
c |     17096 |   94334   449373  1087666 |   427371    17096     51 | 13.940 % |
c |     25745 |   94334   449373  1087666 |   470108    25745     49 | 13.940 % |
c |     38719 |   94334   449373  1087666 |   517119    38719     50 | 13.940 % |
c |     58180 |   94333   449363  1087643 |   568831    58178     49 | 13.941 % |
c |     87372 |   93970   447548  1083287 |   625714    81763     47 | 14.272 % |
c ===============================================================================
c restarts              : 255
c conflicts             : 94589          (4335 /sec)
c decisions             : 277558         (0.00 % random) (12720 /sec)
c propagations          : 107476836      (4925304 /sec)
c conflict literals     : 4428623        (31.30 % deleted)
d RESTARTS             255
d FAILURES             94589        
d NODES                277558       
d BACKTRACKS           277558       
d PROPAGATIONS         107476836    
d NOGOODSIZE           46.82 
d MEMORY               95.00 
d TIME                 21.8214 

s UNSATISFIABLE
